# Solution for model micodag
# Objective value = 6.8605604027895239e+00
s_0_1 0
s_1_0 0
s_1_3 0
s_3_1 0
s_1_4 0
s_4_1 2.1917215345193153e-01
s_2_3 0
s_3_2 2.0271984066913440e-01
s_2_5 5.5921426990268719e+00
s_5_2 0
s_3_4 0
s_4_3 4.2115770927123997e-01
s_4_5 0
s_5_4 0
s_4_6 0
s_6_4 6.8989321999107212e-01
s_4_7 0
s_7_4 7.4266082429906444e-01
s_5_6 0
s_6_5 5.5921426990268719e+00
s_0_0 9.5891201153660965e-01
s_1_1 6.7562301405934377e-01
s_2_2 3.4203551376201364e+00
s_3_3 6.5113613363544420e-01
s_4_4 0.631343807338415
s_5_5 5.5921426990268719e+00
s_6_6 1.8998774282823820e+00
s_7_7 1.9701266533445096e+00
Gamma_0_0 9.7924052792795013e-01
Gamma_0_1 0
Gamma_0_2 0
Gamma_0_3 0
Gamma_0_4 0
Gamma_0_5 0
Gamma_0_6 0
Gamma_0_7 0
Gamma_1_0 0
Gamma_1_1 8.2196290309194908e-01
Gamma_1_2 0
Gamma_1_3 0
Gamma_1_4 0
Gamma_1_5 0
Gamma_1_6 0
Gamma_1_7 0
Gamma_2_0 0
Gamma_2_1 0
Gamma_2_2 1.8494202166138816e+00
Gamma_2_3 0
Gamma_2_4 0
Gamma_2_5 -9.6097983675105758e-01
Gamma_2_6 0
Gamma_2_7 0
Gamma_3_0 0
Gamma_3_1 0
Gamma_3_2 4.5024420114992625e-01
Gamma_3_3 8.0693006737600559e-01
Gamma_3_4 0
Gamma_3_5 0
Gamma_3_6 0
Gamma_3_7 0
Gamma_4_0 0
Gamma_4_1 -4.6815825684476842e-01
Gamma_4_2 0
Gamma_4_3 6.4896664727183107e-01
Gamma_4_4 7.9457146144221424e-01
Gamma_4_5 0
Gamma_4_6 0
Gamma_4_7 0
Gamma_5_0 0
Gamma_5_1 0
Gamma_5_2 0
Gamma_5_3 0
Gamma_5_4 0
Gamma_5_5 1.1418795624091220e+00
Gamma_5_6 0
Gamma_5_7 0
Gamma_6_0 0
Gamma_6_1 0
Gamma_6_2 0
Gamma_6_3 0
Gamma_6_4 -0.83059810979262
Gamma_6_5 1.1646580137395783e+00
Gamma_6_6 1.3783604130568983e+00
Gamma_6_7 0
Gamma_7_0 0
Gamma_7_1 0
Gamma_7_2 0
Gamma_7_3 0
Gamma_7_4 -8.6177771165136607e-01
Gamma_7_5 0
Gamma_7_6 0
Gamma_7_7 1.4036120024225036e+00
psi_0 0
psi_1 2
psi_2 3
psi_3 2
psi_4 1
psi_5 4
psi_6 0
psi_7 0
g_0_0 0
g_0_1 0
g_0_2 0
g_0_3 0
g_0_4 0
g_0_5 0
g_0_6 0
g_0_7 0
g_1_0 0
g_1_1 0
g_1_2 0
g_1_3 0
g_1_4 0
g_1_5 0
g_1_6 0
g_1_7 0
g_2_0 0
g_2_1 0
g_2_2 0
g_2_3 0
g_2_4 0
g_2_5 1
g_2_6 0
g_2_7 0
g_3_0 0
g_3_1 0
g_3_2 1
g_3_3 0
g_3_4 0
g_3_5 0
g_3_6 0
g_3_7 0
g_4_0 0
g_4_1 1
g_4_2 0
g_4_3 1
g_4_4 0
g_4_5 0
g_4_6 0
g_4_7 0
g_5_0 0
g_5_1 0
g_5_2 0
g_5_3 0
g_5_4 0
g_5_5 0
g_5_6 0
g_5_7 0
g_6_0 0
g_6_1 0
g_6_2 0
g_6_3 0
g_6_4 1
g_6_5 1
g_6_6 0
g_6_7 0
g_7_0 0
g_7_1 0
g_7_2 0
g_7_3 0
g_7_4 1
g_7_5 0
g_7_6 0
g_7_7 0
T_0 4.1955958530522253e-02
T_1 3.9212003000561424e-01
T_2 -1.2297443870927651e+00
T_3 4.2903654398760693e-01
T_4 0.459904703748677
T_5 -2.6535128736760782e-01
T_6 -6.4178937266112257e-01
T_7 -6.7809783172114635e-01
